; benchmark generated from python API
(set-info :status unknown)
(declare-fun W_S2_V1 () Bool)
(declare-fun W_S2_V3 () Bool)
(declare-fun W_S2_V2 () Bool)
(declare-fun W_S2_V5 () Bool)
(declare-fun W_S2_V6 () Bool)
(declare-fun W_S3_V1 () Bool)
(declare-fun W_S3_V3 () Bool)
(declare-fun W_S3_V2 () Bool)
(declare-fun W_S3_V4 () Bool)
(declare-fun W_S3_V6 () Bool)
(declare-fun W_S1_V1 () Bool)
(declare-fun W_S1_V2 () Bool)
(declare-fun W_S1_V5 () Bool)
(declare-fun W_S1_V4 () Bool)
(declare-fun W_S1_V6 () Bool)
(declare-fun R_S2_V1 () Bool)
(declare-fun R_S2_V3 () Bool)
(declare-fun R_S2_V2 () Bool)
(declare-fun R_S2_V5 () Bool)
(declare-fun R_S2_V4 () Bool)
(declare-fun R_S2_V6 () Bool)
(declare-fun R_E1_V1 () Bool)
(declare-fun R_E1_V3 () Bool)
(declare-fun R_E1_V2 () Bool)
(declare-fun R_E1_V5 () Bool)
(declare-fun R_E1_V4 () Bool)
(declare-fun R_E1_V6 () Bool)
(declare-fun DISJ_W_S2_W_S3 () Bool)
(declare-fun DISJ_W_S2_R_S2 () Bool)
(declare-fun DISJ_W_S2_R_E1 () Bool)
(declare-fun R_S3_V1 () Bool)
(declare-fun R_S3_V3 () Bool)
(declare-fun R_S3_V2 () Bool)
(declare-fun R_S3_V5 () Bool)
(declare-fun R_S3_V4 () Bool)
(declare-fun R_S3_V6 () Bool)
(declare-fun DISJ_W_S2_R_S3 () Bool)
(declare-fun R_S1_V1 () Bool)
(declare-fun R_S1_V3 () Bool)
(declare-fun R_S1_V2 () Bool)
(declare-fun R_S1_V5 () Bool)
(declare-fun R_S1_V4 () Bool)
(declare-fun R_S1_V6 () Bool)
(declare-fun DISJ_W_S2_R_S1 () Bool)
(declare-fun R_B1_V1 () Bool)
(declare-fun R_B1_V3 () Bool)
(declare-fun R_B1_V2 () Bool)
(declare-fun R_B1_V5 () Bool)
(declare-fun R_B1_V4 () Bool)
(declare-fun R_B1_V6 () Bool)
(declare-fun DISJ_W_S2_R_B1 () Bool)
(declare-fun DISJ_W_S3_R_S2 () Bool)
(declare-fun DISJ_W_S3_R_E1 () Bool)
(declare-fun DISJ_W_S3_R_S3 () Bool)
(declare-fun DISJ_W_S3_R_S1 () Bool)
(declare-fun DISJ_W_S3_R_B1 () Bool)
(declare-fun DISJ_W_S1_W_S2 () Bool)
(declare-fun DISJ_W_S1_W_S3 () Bool)
(declare-fun DISJ_W_S1_R_S2 () Bool)
(declare-fun DISJ_W_S1_R_E1 () Bool)
(declare-fun DISJ_W_S1_R_S3 () Bool)
(declare-fun DISJ_W_S1_R_S1 () Bool)
(declare-fun DISJ_W_S1_R_B1 () Bool)
(declare-fun W_S2_V4 () Bool)
(declare-fun W_S3_V5 () Bool)
(declare-fun W_S1_V3 () Bool)
(assert
 (let (($x2065 (forall ((V6_0 Int) )(forall ((V4_0 Int) )(forall ((V5_0 Int) )(forall ((V2_0 Int) )(forall ((V3_0 Int) )(forall ((V1_0 Int) )(forall ((MW_S1_V6 Bool) )(forall ((MW_S1_V4 Bool) )(forall ((MW_S1_V5 Bool) )(forall ((MW_S1_V2 Bool) )(forall ((MW_S1_V3 Bool) )(forall ((MW_S1_V1 Bool) )(forall ((MW_S3_V6 Bool) )(forall ((MW_S3_V4 Bool) )(forall ((MW_S3_V2 Bool) )(forall ((MW_S3_V3 Bool) )(forall ((MW_S3_V1 Bool) )(forall ((MW_S2_V6 Bool) )(forall ((MW_S2_V4 Bool) )(forall ((MW_S2_V5 Bool) )(forall ((MW_S2_V2 Bool) )(forall ((MW_S2_V3 Bool) )(forall ((MW_S2_V1 Bool) )(forall ((S1_V4_!47 Int) )(forall ((S1_V4_!62 Int) )(forall ((S2_V4_!54 Int) )(forall ((S2_V4_!69 Int) )(forall ((S1_V6_!46 Int) )(forall ((S1_V6_!61 Int) )(forall ((E1_!52 Int) )(forall ((E1_!59 Int) )(forall ((E1_!67 Int) )(forall ((S1_V1_!51 Int) )(forall ((S1_V1_!66 Int) )(forall ((S2_V6_!53 Int) )(forall ((S2_V6_!68 Int) )(forall ((S1_V3_!50 Int) )(forall ((S1_V3_!65 Int) )(forall ((S1_V2_!49 Int) )(forall ((S1_V2_!64 Int) )(forall ((B1_!45 Bool) )(forall ((B1_!60 Bool) )(forall ((S2_V1_!58 Int) )(forall ((S2_V1_!73 Int) )(forall ((S2_V5_!55 Int) )(forall ((S2_V5_!70 Int) )(forall ((S2_V2_!56 Int) )(forall ((S2_V2_!71 Int) )(forall ((S2_V3_!57 Int) )(forall ((S2_V3_!72 Int) )(forall ((S1_V5_!48 Int) )(forall ((S1_V5_!63 Int) )(let ((?x5411 (ite MW_S1_V3 S1_V3_!50 V3_0)))
 (let ((?x4852 (ite MW_S2_V3 S2_V3_!57 ?x5411)))
 (let ((?x956 (ite MW_S1_V5 S1_V5_!48 V5_0)))
 (let ((?x2116 (ite MW_S2_V5 S2_V5_!55 ?x956)))
 (let ((?x2468 (ite MW_S1_V4 S1_V4_!47 V4_0)))
 (let ((?x1229 (ite MW_S2_V4 S2_V4_!54 ?x2468)))
 (let ((?x274 (ite MW_S1_V6 S1_V6_!46 V6_0)))
 (let ((?x1212 (ite MW_S2_V6 S2_V6_!53 ?x274)))
 (let (($x5792 (and (= ?x1212 (ite MW_S2_V6 S2_V6_!68 (ite MW_S1_V6 S1_V6_!61 V6_0))) (= ?x1229 (ite MW_S2_V4 S2_V4_!69 (ite MW_S1_V4 S1_V4_!62 V4_0))) (= ?x2116 (ite MW_S2_V5 S2_V5_!70 (ite MW_S1_V5 S1_V5_!63 V5_0))) (= E1_!59 (ite MW_S2_V1 S2_V1_!73 E1_!67)) (= ?x4852 (ite MW_S2_V3 S2_V3_!72 (ite MW_S1_V3 S1_V3_!65 V3_0))) (= (ite MW_S2_V1 S2_V1_!58 E1_!52) (ite MW_S2_V1 S2_V1_!73 E1_!67)))))
 (let (($x5985 (and (or (not R_S2_V6) (= ?x274 (ite MW_S1_V6 S1_V6_!61 V6_0))) (or (not R_S2_V4) (= ?x2468 (ite MW_S1_V4 S1_V4_!62 V4_0))) (or (not R_S2_V5) (= ?x956 (ite MW_S1_V5 S1_V5_!63 V5_0))) (or (not R_S2_V2) (= (ite MW_S1_V2 S1_V2_!49 V2_0) (ite MW_S1_V2 S1_V2_!64 V2_0))) (or (not R_S2_V3) (= ?x5411 (ite MW_S1_V3 S1_V3_!65 V3_0))) (or (not R_S2_V1) (= E1_!52 E1_!67)))))
 (let (($x1185 (not $x5985)))
 (let (($x2362 (and (or (not R_S2_V6) (= (ite MW_S1_V6 S1_V6_!61 V6_0) ?x274)) (or (not R_S2_V4) (= (ite MW_S1_V4 S1_V4_!62 V4_0) ?x2468)) (or (not R_S2_V5) (= (ite MW_S1_V5 S1_V5_!63 V5_0) ?x956)) (or (not R_S2_V2) (= (ite MW_S1_V2 S1_V2_!64 V2_0) (ite MW_S1_V2 S1_V2_!49 V2_0))) (or (not R_S2_V3) (= (ite MW_S1_V3 S1_V3_!65 V3_0) ?x5411)) (or (not R_S2_V1) (= E1_!67 E1_!52)))))
 (let (($x5232 (not $x2362)))
 (let (($x2930 (= E1_!67 E1_!52)))
 (let (($x3538 (and (or (not R_E1_V6) (= (ite MW_S1_V6 S1_V6_!61 V6_0) ?x274)) (or (not R_E1_V4) (= (ite MW_S1_V4 S1_V4_!62 V4_0) ?x2468)) (or (not R_E1_V5) (= (ite MW_S1_V5 S1_V5_!63 V5_0) ?x956)) (or (not R_E1_V2) (= (ite MW_S1_V2 S1_V2_!64 V2_0) (ite MW_S1_V2 S1_V2_!49 V2_0))) (or (not R_E1_V3) (= (ite MW_S1_V3 S1_V3_!65 V3_0) ?x5411)) (or (not R_E1_V1) (= (ite MW_S1_V1 S1_V1_!66 V1_0) (ite MW_S1_V1 S1_V1_!51 V1_0))))))
 (let (($x934 (not R_E1_V2)))
 (let (($x3818 (or $x934 (= (ite MW_S2_V2 S2_V2_!56 (ite MW_S1_V2 S1_V2_!49 V2_0)) (ite MW_S1_V2 S1_V2_!64 V2_0)))))
 (let (($x926 (and (or (not R_E1_V6) (= ?x1212 (ite MW_S1_V6 S1_V6_!61 V6_0))) (or (not R_E1_V4) (= ?x1229 (ite MW_S1_V4 S1_V4_!62 V4_0))) (or (not R_E1_V5) (= ?x2116 (ite MW_S1_V5 S1_V5_!63 V5_0))) $x3818 (or (not R_E1_V3) (= ?x4852 (ite MW_S1_V3 S1_V3_!65 V3_0))) (or (not R_E1_V1) (= (ite MW_S2_V1 S2_V1_!58 E1_!52) (ite MW_S1_V1 S1_V1_!66 V1_0))))))
 (let (($x2597 (or $x934 (= (ite MW_S2_V2 S2_V2_!56 (ite MW_S1_V2 S1_V2_!49 V2_0)) (ite MW_S1_V2 S1_V2_!49 V2_0)))))
 (let (($x66 (and (or (not R_E1_V6) (= ?x1212 ?x274)) (or (not R_E1_V4) (= ?x1229 ?x2468)) (or (not R_E1_V5) (= ?x2116 ?x956)) $x2597 (or (not R_E1_V3) (= ?x4852 ?x5411)) (or (not R_E1_V1) (= (ite MW_S2_V1 S2_V1_!58 E1_!52) (ite MW_S1_V1 S1_V1_!51 V1_0))))))
 (let (($x5283 (and (= S1_V4_!47 S1_V4_!62) (or $x1185 (= S2_V4_!54 S2_V4_!69)) (= S1_V6_!61 S1_V6_!46) (or (not $x66) (= E1_!59 E1_!52)) (or (not $x926) (= E1_!59 E1_!67)) (or (not $x3538) $x2930) (= S1_V1_!66 S1_V1_!51) (or $x5232 (= S2_V6_!68 S2_V6_!53)) (= S1_V3_!65 S1_V3_!50) (= S1_V2_!64 S1_V2_!49) (= B1_!60 B1_!45) (or $x5232 (= S2_V1_!73 S2_V1_!58)) (or $x5232 (= S2_V5_!70 S2_V5_!55)) (or $x1185 (= S2_V2_!56 S2_V2_!71)) (or $x1185 (= S2_V3_!57 S2_V3_!72)) (= S1_V5_!63 S1_V5_!48) (or (not MW_S1_V6) W_S1_V6) (or (not MW_S1_V4) W_S1_V4) (or (not MW_S1_V5) W_S1_V5) (or (not MW_S1_V2) W_S1_V2) (or (not MW_S1_V1) W_S1_V1) (or (not MW_S3_V6) W_S3_V6) (or (not MW_S3_V4) W_S3_V4) (or (not MW_S3_V2) W_S3_V2) (or (not MW_S3_V3) W_S3_V3) (or (not MW_S3_V1) W_S3_V1) (or (not MW_S2_V6) W_S2_V6) (or (not MW_S2_V5) W_S2_V5) (or (not MW_S2_V2) W_S2_V2) (or (not MW_S2_V3) W_S2_V3) (or (not MW_S2_V1) W_S2_V1))))
 (or (not $x5283) (not (and B1_!45 B1_!60)) $x5792)))))))))))))))))))))))
 )
 )
 )
 )
 )
 )
 )
 )
 )
 )
 )
 )
 )
 )
 )
 )
 )
 )
 )
 )
 )
 )
 )
 )
 )
 )
 )
 )
 )
 )
 )
 )
 )
 )
 )
 )
 )
 )
 )
 )
 )
 )
 )
 )
 )
 )
 )
 )
 )
 )
 )
 ))
 (let (($x945 (and W_S2_V1 W_S3_V1)))
 (let (($x2716 (and W_S2_V3 W_S3_V3)))
 (let (($x1732 (and W_S2_V2 W_S3_V2)))
 (let (($x4705 (and W_S2_V6 W_S3_V6)))
 (let (($x5244 (= DISJ_W_S2_W_S3 (not (or $x4705 W_S3_V4 W_S2_V5 $x1732 $x2716 $x945)))))
 (let (($x341 (and W_S2_V1 R_S2_V1)))
 (let (($x3024 (and W_S2_V3 R_S2_V3)))
 (let (($x2731 (and W_S2_V2 R_S2_V2)))
 (let (($x3345 (and W_S2_V5 R_S2_V5)))
 (let (($x1721 (and W_S2_V6 R_S2_V6)))
 (let (($x1983 (= DISJ_W_S2_R_S2 (not (or $x1721 R_S2_V4 $x3345 $x2731 $x3024 $x341)))))
 (let (($x5089 (and W_S2_V1 R_E1_V1)))
 (let (($x1501 (and W_S2_V3 R_E1_V3)))
 (let (($x2284 (and W_S2_V2 R_E1_V2)))
 (let (($x2080 (and W_S2_V5 R_E1_V5)))
 (let (($x5915 (and W_S2_V6 R_E1_V6)))
 (let (($x327 (= DISJ_W_S2_R_E1 (not (or $x5915 R_E1_V4 $x2080 $x2284 $x1501 $x5089)))))
 (let (($x2349 (and W_S2_V1 R_S3_V1)))
 (let (($x2260 (and W_S2_V3 R_S3_V3)))
 (let (($x1703 (and W_S2_V2 R_S3_V2)))
 (let (($x992 (and W_S2_V5 R_S3_V5)))
 (let (($x3519 (and W_S2_V6 R_S3_V6)))
 (let (($x1690 (= DISJ_W_S2_R_S3 (not (or $x3519 R_S3_V4 $x992 $x1703 $x2260 $x2349)))))
 (let (($x3623 (and W_S2_V1 R_S1_V1)))
 (let (($x734 (and W_S2_V3 R_S1_V3)))
 (let (($x4996 (and W_S2_V2 R_S1_V2)))
 (let (($x3472 (and W_S2_V5 R_S1_V5)))
 (let (($x1009 (and W_S2_V6 R_S1_V6)))
 (let (($x2226 (= DISJ_W_S2_R_S1 (not (or $x1009 R_S1_V4 $x3472 $x4996 $x734 $x3623)))))
 (let (($x1973 (and W_S2_V1 R_B1_V1)))
 (let (($x2756 (and W_S2_V3 R_B1_V3)))
 (let (($x3624 (and W_S2_V2 R_B1_V2)))
 (let (($x140 (and W_S2_V5 R_B1_V5)))
 (let (($x5689 (and W_S2_V6 R_B1_V6)))
 (let (($x862 (= DISJ_W_S2_R_B1 (not (or $x5689 R_B1_V4 $x140 $x3624 $x2756 $x1973)))))
 (let (($x4386 (and W_S3_V1 R_S2_V1)))
 (let (($x5717 (and W_S3_V3 R_S2_V3)))
 (let (($x3459 (and W_S3_V2 R_S2_V2)))
 (let (($x3321 (and W_S3_V4 R_S2_V4)))
 (let (($x6063 (and W_S3_V6 R_S2_V6)))
 (let (($x2683 (= DISJ_W_S3_R_S2 (not (or $x6063 $x3321 R_S2_V5 $x3459 $x5717 $x4386)))))
 (let (($x4315 (and W_S3_V1 R_E1_V1)))
 (let (($x2246 (and W_S3_V3 R_E1_V3)))
 (let (($x4889 (and W_S3_V2 R_E1_V2)))
 (let (($x1138 (and W_S3_V4 R_E1_V4)))
 (let (($x3956 (and W_S3_V6 R_E1_V6)))
 (let (($x2288 (= DISJ_W_S3_R_E1 (not (or $x3956 $x1138 R_E1_V5 $x4889 $x2246 $x4315)))))
 (let (($x2189 (and W_S3_V1 R_S3_V1)))
 (let (($x990 (and W_S3_V3 R_S3_V3)))
 (let (($x6078 (and W_S3_V2 R_S3_V2)))
 (let (($x4015 (and W_S3_V4 R_S3_V4)))
 (let (($x3110 (and W_S3_V6 R_S3_V6)))
 (let (($x5198 (= DISJ_W_S3_R_S3 (not (or $x3110 $x4015 R_S3_V5 $x6078 $x990 $x2189)))))
 (let (($x3275 (and W_S3_V1 R_S1_V1)))
 (let (($x5107 (and W_S3_V3 R_S1_V3)))
 (let (($x6003 (and W_S3_V2 R_S1_V2)))
 (let (($x1891 (and W_S3_V4 R_S1_V4)))
 (let (($x5360 (and W_S3_V6 R_S1_V6)))
 (let (($x942 (= DISJ_W_S3_R_S1 (not (or $x5360 $x1891 R_S1_V5 $x6003 $x5107 $x3275)))))
 (let (($x2393 (and W_S3_V1 R_B1_V1)))
 (let (($x174 (and W_S3_V3 R_B1_V3)))
 (let (($x2327 (and W_S3_V2 R_B1_V2)))
 (let (($x211 (and W_S3_V4 R_B1_V4)))
 (let (($x2826 (and W_S3_V6 R_B1_V6)))
 (let (($x3220 (= DISJ_W_S3_R_B1 (not (or $x2826 $x211 R_B1_V5 $x2327 $x174 $x2393)))))
 (let (($x3531 (and W_S1_V1 W_S2_V1)))
 (let (($x2469 (and W_S1_V2 W_S2_V2)))
 (let (($x1886 (and W_S1_V5 W_S2_V5)))
 (let (($x3222 (and W_S1_V6 W_S2_V6)))
 (let (($x3986 (= DISJ_W_S1_W_S2 (not (or $x3222 W_S1_V4 $x1886 $x2469 W_S2_V3 $x3531)))))
 (let (($x4794 (and W_S1_V1 W_S3_V1)))
 (let (($x3434 (and W_S1_V2 W_S3_V2)))
 (let (($x5139 (and W_S1_V4 W_S3_V4)))
 (let (($x2684 (and W_S1_V6 W_S3_V6)))
 (let (($x2515 (= DISJ_W_S1_W_S3 (not (or $x2684 $x5139 W_S1_V5 $x3434 W_S3_V3 $x4794)))))
 (let (($x2228 (and W_S1_V1 R_S2_V1)))
 (let (($x5216 (and W_S1_V2 R_S2_V2)))
 (let (($x783 (and W_S1_V5 R_S2_V5)))
 (let (($x2005 (and W_S1_V4 R_S2_V4)))
 (let (($x995 (and W_S1_V6 R_S2_V6)))
 (let (($x683 (= DISJ_W_S1_R_S2 (not (or $x995 $x2005 $x783 $x5216 R_S2_V3 $x2228)))))
 (let (($x2824 (and W_S1_V1 R_E1_V1)))
 (let (($x4951 (and W_S1_V2 R_E1_V2)))
 (let (($x5510 (and W_S1_V5 R_E1_V5)))
 (let (($x614 (and W_S1_V4 R_E1_V4)))
 (let (($x299 (and W_S1_V6 R_E1_V6)))
 (let (($x806 (= DISJ_W_S1_R_E1 (not (or $x299 $x614 $x5510 $x4951 R_E1_V3 $x2824)))))
 (let (($x850 (and W_S1_V1 R_S3_V1)))
 (let (($x1568 (and W_S1_V2 R_S3_V2)))
 (let (($x3192 (and W_S1_V5 R_S3_V5)))
 (let (($x1702 (and W_S1_V4 R_S3_V4)))
 (let (($x1823 (and W_S1_V6 R_S3_V6)))
 (let (($x2743 (= DISJ_W_S1_R_S3 (not (or $x1823 $x1702 $x3192 $x1568 R_S3_V3 $x850)))))
 (let (($x3497 (and W_S1_V1 R_S1_V1)))
 (let (($x4320 (and W_S1_V2 R_S1_V2)))
 (let (($x366 (and W_S1_V5 R_S1_V5)))
 (let (($x606 (and W_S1_V4 R_S1_V4)))
 (let (($x1297 (and W_S1_V6 R_S1_V6)))
 (let (($x5688 (= DISJ_W_S1_R_S1 (not (or $x1297 $x606 $x366 $x4320 R_S1_V3 $x3497)))))
 (let (($x3443 (and W_S1_V1 R_B1_V1)))
 (let (($x117 (and W_S1_V2 R_B1_V2)))
 (let (($x1268 (and W_S1_V5 R_B1_V5)))
 (let (($x124 (and W_S1_V4 R_B1_V4)))
 (let (($x3761 (and W_S1_V6 R_B1_V6)))
 (let (($x2929 (= DISJ_W_S1_R_B1 (not (or $x3761 $x124 $x1268 $x117 R_B1_V3 $x3443)))))
 (and W_S1_V3 W_S3_V5 W_S2_V4 $x2929 $x5688 $x2743 $x806 $x683 $x2515 $x3986 $x3220 $x942 $x5198 $x2288 $x2683 $x862 $x2226 $x1690 $x327 $x1983 $x5244 $x2065))))))))))))))))))))))))))))))))))))))))))))))))))))))))))))))))))))))))))))))))))))))))))))))))))))))))))))
(check-sat)
